# Solution for model Poisoning_Attack
# Objective value = 3.0806348153422425e-02
x_poison_num[1,1] 7.1707967507819631e-02
x_poison_num[2,1] 0
x_poison_num[3,1] 2.8522437344078766e-01
x_poison_num[4,1] 0
x_poison_num[5,1] 4.3768524744206581e-02
x_poison_num[6,1] 2.4398513839539188e-01
x_poison_num[7,1] 3.7929616166926150e-01
x_poison_num[8,1] 0
x_poison_cat[1,1,1] 1
x_poison_cat[1,1,2] 0
x_poison_cat[1,1,3] 0
x_poison_cat[2,1,1] 1
x_poison_cat[2,1,2] 0
x_poison_cat[2,1,3] 0
x_poison_cat[3,1,1] 1
x_poison_cat[3,1,2] 0
x_poison_cat[3,1,3] 0
x_poison_cat[4,1,1] 1
x_poison_cat[4,1,2] 0
x_poison_cat[4,1,3] 0
x_poison_cat[5,1,1] 1
x_poison_cat[5,1,2] 0
x_poison_cat[5,1,3] 0
x_poison_cat[6,1,1] 1
x_poison_cat[6,1,2] 0
x_poison_cat[6,1,3] 0
x_poison_cat[7,1,1] 1
x_poison_cat[7,1,2] 0
x_poison_cat[7,1,3] 0
x_poison_cat[8,1,1] 1
x_poison_cat[8,1,2] 0
x_poison_cat[8,1,3] 0
weights_num[1] -2.1093585942476109e-02
self.weights_cat[1,1] 1.9386452921656538e-01
self.weights_cat[1,2] 6.8334622230021680e-02
self.weights_cat[1,3] 0
bias 3.0927640048074695e-01
C37 -1.0846390665365066e-04
C38 0
C39 -1.7160252991615041e-03
C40 0
C41 -4.04086399939739e-05
C42 -1.2557180911446026e-03
C43 -3.0346409391287803e-03
C44 0
C45 1.3901631361980219e-02
C46 0
C47 0
C48 0
C49 0
C50 0
C51 5.5294888878188134e-02
C52 0
C53 0
C54 0
C55 0
C56 0
C57 8.4851644440392029e-03
C58 0
C59 0
C60 4.7300244256739135e-02
C61 0
C62 0
C63 7.3532071815661654e-02
C64 0
C65 0
C66 0
C67 0
C68 0
C69 -1.5125781753864143e-03
C70 0
C71 0
C72 0
C73 0
C74 0
C75 -6.0164048340621548e-03
C76 0
C77 0
C78 0
C79 0
C80 0
C81 -9.2323513826731362e-04
C82 0
C83 0
C84 -5.1467998588656423e-03
C85 0
C86 0
C87 -0.00800071618382181
C88 0
C89 0
C90 0
C91 0
C92 0
C93 1.9386452921656550e-01
C94 0
C95 0
C96 0
C97 0
C98 0
C99 0
C100 0
C101 0
C102 1.9386452921656527e-01
C103 0
C104 0
C105 0
C106 0
C107 0
C108 0
C109 0
C110 0
C111 1.9386452921656527e-01
C112 0
C113 0
C114 0
C115 0
C116 0
C117 0
C118 0
C119 0
C120 1.9386452921656527e-01
C121 0
C122 0
C123 0
C124 0
C125 0
C126 0
C127 0
C128 0
C129 1.9386452921656550e-01
C130 0
C131 0
C132 0
C133 0
C134 0
C135 0
C136 0
C137 0
C138 1.9386452921656550e-01
C139 0
C140 0
C141 0
C142 0
C143 0
C144 0
C145 0
C146 0
C147 1.9386452921656550e-01
C148 0
C149 0
C150 0
C151 0
C152 0
C153 0
C154 0
C155 0
C156 1.9386452921656527e-01
C157 0
C158 0
C159 0
C160 0
C161 0
C162 0
C163 0
C164 0
C165 -1.5125781753864778e-03
C166 0
C167 -6.0164048340621548e-03
C168 0
C169 -9.2323513826731362e-04
C170 -5.1467998588656354e-03
C171 -0.00800071618382188
C172 0
C173 1.9386452921656538e-01
C174 0
C175 0
C176 1.9386452921656538e-01
C177 0
C178 0
C179 1.9386452921656527e-01
C180 0
C181 0
C182 1.9386452921656538e-01
C183 0
C184 0
C185 1.9386452921656538e-01
C186 0
C187 0
C188 1.9386452921656538e-01
C189 0
C190 0
C191 1.9386452921656538e-01
C192 0
C193 0
C194 1.9386452921656538e-01
C195 0
C196 0
C197 2.2177582076608814e-02
C198 0
C199 8.8213167547143159e-02
C200 0
C201 1.3536571787240718e-02
C202 7.5458895018294975e-02
C203 1.1730735159723266e-01
C204 0
C205 3.0927640048074695e-01
C206 0
C207 0
C208 3.0927640048074695e-01
C209 0
C210 0
C211 3.0927640048074695e-01
C212 0
C213 0
C214 3.0927640048074695e-01
C215 0
C216 0
C217 3.0927640048074695e-01
C218 0
C219 0
C220 3.0927640048074695e-01
C221 0
C222 0
C223 3.0927640048074695e-01
C224 0
C225 0
C226 3.0927640048074695e-01
C227 0
C228 0
